Results/Experiment 1 Results/Existing Benchmark/RES_40/i-40-75-19.txt
solutions: 1 nodes: 4  modelTime: 119  solveTime: 15  totalTime: 139  modelSize: 7857  readTime: 5 matchingSize: 20
