Results/Experiment 2 Results/Existing Benchmark/i-40-75-19.lp
clingo version 5.4.0
Reading from tempSRTISolver.lp ...
Solving...
Answer: 1
matched(19,2) matched(40,3) matched(6,4) matched(1,5) matched(4,6) matched(27,8) matched(30,10) matched(7,11) matched(25,12) matched(16,14) matched(14,16) matched(29,17) matched(21,18) matched(2,19) matched(18,21) matched(36,23) matched(12,25) matched(22,26) matched(8,27) matched(17,29) matched(10,30) matched(34,32) matched(38,33) matched(32,34) matched(23,36) matched(39,37) matched(33,38) matched(5,1) matched(35,9) matched(24,15) matched(31,20) matched(26,22) matched(15,24) matched(13,28) matched(20,31) matched(3,40) matched(28,13) matched(37,39) matched(11,7) matched(9,35)
Optimization: 229
OPTIMUM FOUND

Models       : 1
  Optimum    : yes
Optimization : 229
Calls        : 1
Time         : 0.510s (Solving: 0.03s 1st Model: 0.01s Unsat: 0.02s)
CPU Time     : 0.507s
